CPXPARAM_TimeLimit                               3600
CPXPARAM_Read_DataCheck                          1
Tried aggregator 1 time.
MIP Presolve eliminated 3463 rows and 0 columns.
MIP Presolve modified 5923 coefficients.
Reduced MIP has 225717 rows, 72601 columns, and 815294 nonzeros.
Reduced MIP has 3800 binaries, 0 generals, 0 SOSs, and 0 indicators.
Presolve time = 0.20 sec. (300.52 ticks)
Found incumbent of value 17293.000000 after 0.40 sec. (547.09 ticks)
Probing fixed 0 vars, tightened 4 bounds.
Probing time = 0.06 sec. (50.77 ticks)
Tried aggregator 1 time.
Reduced MIP has 225717 rows, 72601 columns, and 815294 nonzeros.
Reduced MIP has 3800 binaries, 0 generals, 0 SOSs, and 0 indicators.
Presolve time = 0.42 sec. (407.07 ticks)
Probing time = 0.04 sec. (33.62 ticks)
MIP emphasis: balance optimality and feasibility.
MIP search method: dynamic search.
Parallel mode: deterministic, using up to 8 threads.
Root relaxation solution time = 87.86 sec. (24156.28 ticks)

        Nodes                                         Cuts/
   Node  Left     Objective  IInf  Best Integer    Best Bound    ItCnt     Gap

*     0+    0                        17293.0000     1303.0000            92.47%
      0     0     1303.0000  2789    17293.0000     1303.0000    47695   92.47%
      0     0     1303.2556  3170    17293.0000    Cuts: 3032   182009   92.46%
      0     0     1310.9525  2975    17293.0000    Cuts: 5563   308585   92.42%

Implied bound cuts applied:  488
Flow cuts applied:  740
Mixed integer rounding cuts applied:  3087

Root node processing (before b&c):
  Real time             = 3600.09 sec. (2037947.55 ticks)
Parallel b&c, 8 threads:
  Real time             =    0.00 sec. (0.00 ticks)
  Sync time (average)   =    0.00 sec.
  Wait time (average)   =    0.00 sec.
                          ------------
Total (root+branch&cut) = 3600.09 sec. (2037947.55 ticks)
